benchmarks_vrp/CMT12/no_cluster/CMT12_3.vrp
NAME: CMT12_3
TYPE: CVRP
COMMENT: 819.56 - Cluster Nr.3
DIMENSION: 14
CAPACITY: 200
EDGE_WEIGHT_TYPE: EUC_2D
NODE_COORD_TYPE: TWOD_COORDS
NODE_COORD_SECTION: 
1 30 52
4 20 55
2 25 50
3 30 50
5 40 50
7 35 66
9 35 69
11 25 52
6 23 52
13 28 55
8 23 55
10 25 55
12 28 52
14 20 50
DEPOT_SECTION: 
5
-1
DEMAND_SECTION: 
3 10
9 10
1 20
7 10
11 40
6 10
13 10
8 20
2 10
4 10
12 20
10 10
5 0
14 10
EOF
