benchmarks_vrp/CMT12/no_cluster/CMT12_3.tour
NAME: CMT12_3 solution
TYPE: TOUR
TOUR_SECTION:
5 3 1 12 2 11 6 14 4 8 10 13 7 9 -1
-1
EOF